1
1000
42
388 1
394 1
396 1
271 1
274 1
275 1
276 1
278 2
280 1
281 1
282 1
285 2
286 1
294 1
295 2
297 1
298 1
309 1
312 1
313 1
317 1
319 1
323 1
326 1
328 1
332 1
333 1
337 1
340 1
346 1
349 1
350 2
352 2
353 1
358 3
359 1
363 1
372 1
377 2
378 1
380 1
381 1
